20
1 0 80
2 0 33
2 1 55
3 0 71
3 1 72
3 2 54
4 0 95
4 1 51
4 2 55
4 3 3
5 0 80
5 1 3
5 2 28
5 3 29
5 4 77
6 0 54
6 1 53
6 2 2
6 3 51
6 4 53
6 5 23
7 0 31
7 1 70
7 2 100
7 3 31
7 4 30
7 5 77
7 6 37
8 0 87
8 1 68
8 2 24
8 3 68
8 4 57
8 5 50
8 6 8
8 7 37
9 0 8
9 1 90
9 2 56
9 3 83
9 4 79
9 5 97
9 6 46
9 7 53
9 8 26
10 0 78
10 1 62
10 2 38
10 3 98
10 4 16
10 5 21
10 6 57
10 7 51
10 8 96
10 9 19
11 0 31
11 1 98
11 2 80
11 3 81
11 4 82
11 5 62
11 6 46
11 7 24
11 8 80
11 9 72
11 10 51
12 0 49
12 1 15
12 2 25
12 3 84
12 4 32
12 5 53
12 6 2
12 7 14
12 8 89
12 9 32
12 10 98
12 11 46
13 0 18
13 1 71
13 2 39
13 3 52
13 4 46
13 5 30
13 6 53
13 7 28
13 8 46
13 9 30
13 10 44
13 11 99
13 12 90
14 0 7
14 1 83
14 2 76
14 3 59
14 4 94
14 5 14
14 6 29
14 7 28
14 8 27
14 9 31
14 10 37
14 11 78
14 12 15
14 13 79
15 0 26
15 1 36
15 2 47
15 3 98
15 4 12
15 5 22
15 6 11
15 7 86
15 8 92
15 9 48
15 10 30
15 11 77
15 12 74
15 13 29
15 14 77
16 0 43
16 1 28
16 2 62
16 3 99
16 4 67
16 5 90
16 6 15
16 7 60
16 8 61
16 9 64
16 10 13
16 11 1
16 12 8
16 13 3
16 14 19
16 15 57
17 0 55
17 1 55
17 2 54
17 3 1
17 4 99
17 5 18
17 6 88
17 7 83
17 8 33
17 9 24
17 10 12
17 11 88
17 12 39
17 13 56
17 14 57
17 15 57
17 16 54
18 0 77
18 1 45
18 2 8
18 3 47
18 4 3
18 5 59
18 6 67
18 7 74
18 8 64
18 9 78
18 10 9
18 11 7
18 12 31
18 13 32
18 14 46
18 15 51
18 16 9
18 17 40
19 0 25
19 1 93
19 2 14
19 3 63
19 4 24
19 5 52
19 6 85
19 7 74
19 8 53
19 9 19
19 10 11
19 11 22
19 12 100
19 13 10
19 14 63
19 15 59
19 16 82
19 17 66
19 18 58
